30 50
0
0
0
0
0
0
0
1
0
0
0
0
0
0
0
0
0
0
0
0
0
0
0
0
0
0
0
0
0
0
1 28 9826
1 20 1354
1 2 9479
1 17 8219
28 14 56
14 8 6693
8 30 3771
20 28 9190
20 23 5048
20 22 615
23 11 7653
11 6 693
6 7 783
6 2 7168
7 3 2787
7 29 4976
3 14 7900
3 16 4673
16 29 5480
29 2 9552
2 18 3268
18 21 6265
21 25 3036
21 13 4204
25 22 2113
22 4 6610
22 26 8501
22 12 1134
4 9 7610
4 30 7743
9 13 3144
9 26 3787
13 14 5448
13 15 2622
15 26 2005
15 27 5503
26 19 9314
26 24 5775
26 10 1044
19 5 713
5 17 2741
5 27 8697
5 30 1406
17 8 3524
17 24 2216
24 27 544
24 12 4851
27 12 115
12 10 5216
10 30 330
